TERM = { '.', s0, s1, s13, s14, s15, s16, s17, s18, s2, s3, s4, s19, s20, s21, s22};
null = '.';
s = 17;
n = 13;
min = 15;
N0 = 0;
ZEROARYOP = {};
zeroout = [];
zerogas = [];
zerosz =  [];
zerolb =  [];
zeroub =  [];
N1 = 1;
UNARYOP = { MLOAD_0 };
unin = [ s20 ];
unout = [ s14 ];
ungas = [ 3 ];
unsz = [ 1 ];
unlb = [ 1 ];
unub = [ 17 ];
N2 = 3;
BINARYOP = { AND_0, SUB_0, SHL_0 };
binin1 = [s17, s18, s22 ];
binin2 = [s4, s21, s21 ];
binout = [s16, s17, s18 ];
bincomm = [true, false, false ];
bingas = [3, 3, 3 ];
binsz = [1, 1, 1 ];
binlb = [ 1, 1, 1 ];
binub = [ 17, 17, 17 ];
NA = 0;
ASSOCIATIVEADDOP = {};
naddin =  [];
addin =  [||];
addout = [];
addcomm = [];
addgas = [];
addsz =  [];
addlb =  [];
addub =  [];
NPUSH = 6;
PUSHOP = { 'PUSH [tag]_0', 'PUSH [tag]_1', PUSH_0, PUSH_1, PUSH_2, PUSH_3 };
pushout = [ s13, s15, s19, s20, s21, s22 ];
pushgas = [ 3, 3, 3, 3, 3, 3 ];
pushsz = [ 3, 3, 2, 2, 2, 2 ];
pushlb = [ 1, 1, 1, 1, 1, 1 ];
pushub = [ 17, 17, 17, 17, 17, 17 ];
NSTORE = 0;
STOROP = {};
storin1 =  [];
storin2 =  [];
storlb =  [];
storub =  [];
storgas = [];
storsz = [];
DUP_ENUM = { DUP1, DUP2, DUP3, DUP4, DUP5, DUP6, DUP7, DUP8, DUP9, DUP10, DUP11, DUP12};
SWAP_ENUM = { SWAP1, SWAP2, SWAP3, SWAP4, SWAP5, SWAP6, SWAP7, SWAP8, SWAP9, SWAP10, SWAP11, SWAP12};
startstack = [ s0, s1, s2, s3, s4, null, null, null, null, null, null, null, null ];
endstack = [ s13, s14, s3, s15, s2, s16, s19, s19, s0, s1, s2, s3, s4 ];
m_dep_n = 0;
memory_dependences = [| |];
s_dep_n = 0;
store_dependences = [| |];
lib = false;
nlib = 0;
lib_elem = [| |];
lib_dis = [];
